language ESSENCE' 1.0
letting lastdx=91
letting cage be [
[40,6,12,6,11,5,11,5,12,0,0],
[44,2,5,3,5,4,5,4,4,4,3],
[12,12,4,13,4,0,0, 0,0, 0,0],
[17,2,15,1,15,1,16,2,16,0,0],
[15,13,6,0,0, 0,0, 0,0, 0,0],
[15,10,10,11,10,0,0, 0,0, 0,0],
[44,4,11,3,11,3,12,4,12,0,0],
[18,3,14,3,13,0,0, 0,0, 0,0],
[41,3,9,3,8,3,7,2,7,0,0],
[13,11,3,0,0, 0,0, 0,0, 0,0],
[14,15,6,0,0, 0,0, 0,0, 0,0],
[16,13,5,14,5,0,0, 0,0, 0,0],
[29,5,13,5,14,6,14,7,14,8,14],
[2,14,12,0,0, 0,0, 0,0, 0,0],
[20,3,2,2,2,2,1,0,0, 0,0],
[33,3,3,3,4,2,4,1,4,1,5],
[52,11,7,10,7,10,8,9,8,9,7],
[22,6,9,6,8,5,8,0,0, 0,0],
[34,16,15,16,16,15,16,14,16,0,0],
[7,15,8,15,7,0,0, 0,0, 0,0],
[25,7,13,6,13,0,0, 0,0, 0,0],
[6,8,8,0,0, 0,0, 0,0, 0,0],
[15,1,8,0,0, 0,0, 0,0, 0,0],
[35,12,14,12,15,12,16,13,16,0,0],
[22,15,13,16,13,0,0, 0,0, 0,0],
[49,13,8,14,8,14,7,14,6,13,7],
[41,6,1,6,2,5,2,5,3,0,0],
[13,2,10,2,11,2,12,0,0, 0,0],
[37,12,12,13,12,13,11,14,11,14,10],
[39,2,8,2,9,1,9,1,10,0,0],
[34,4,1,3,1,4,2,5,1,0,0],
[28,12,9,11,9,11,8,12,8,0,0],
[5,14,9,0,0, 0,0, 0,0, 0,0],
[25,13,10,13,9,0,0, 0,0, 0,0],
[21,7,5,7,6,7,7,7,8,0,0],
[33,8,2,9,2,9,1,8,1,0,0],
[15,7,16,0,0, 0,0, 0,0, 0,0],
[5,16,14,0,0, 0,0, 0,0, 0,0],
[13,9,6,0,0, 0,0, 0,0, 0,0],
[4,11,14,0,0, 0,0, 0,0, 0,0],
[5,5,16,0,0, 0,0, 0,0, 0,0],
[23,16,5,15,5,15,4,16,4,0,0],
[4,10,3,0,0, 0,0, 0,0, 0,0],
[14,1,14,0,0, 0,0, 0,0, 0,0],
[10,13,2,0,0, 0,0, 0,0, 0,0],
[30,3,6,4,6,4,7,4,8,4,9],
[6,9,5,0,0, 0,0, 0,0, 0,0],
[52,8,12,7,12,7,11,7,10,7,9],
[42,8,3,8,4,7,4,6,4,5,4],
[29,9,15,10,15,10,16,0,0, 0,0],
[7,15,10,0,0, 0,0, 0,0, 0,0],
[21,7,3,6,3,0,0, 0,0, 0,0],
[46,2,13,2,14,1,13,1,12,1,11],
[25,11,16,11,15,0,0, 0,0, 0,0],
[15,8,16,9,16,0,0, 0,0, 0,0],
[31,15,15,15,14,14,14,13,14,0,0],
[35,12,13,13,13,14,13,0,0, 0,0],
[29,4,10,3,10,5,10,5,9,6,10],
[7,3,16,0,0, 0,0, 0,0, 0,0],
[20,10,14,10,13,10,12,0,0, 0,0],
[11,11,13,0,0, 0,0, 0,0, 0,0],
[10,15,11,0,0, 0,0, 0,0, 0,0],
[57,6,6,6,5,5,5,5,6,0,0],
[24,8,6,8,5,8,7,0,0, 0,0],
[12,9,14,0,0, 0,0, 0,0, 0,0],
[18,14,15,13,15,0,0, 0,0, 0,0],
[10,12,1,13,1,0,0, 0,0, 0,0],
[47,15,3,14,3,14,4,13,3,12,3],
[19,12,2,11,2,0,0, 0,0, 0,0],
[24,11,6,12,6,12,7,0,0, 0,0],
[41,15,2,14,2,14,1,15,1,16,1],
[14,6,7,5,7,0,0, 0,0, 0,0],
[45,15,9,16,9,16,10,16,11,0,0],
[5,12,5,0,0, 0,0, 0,0, 0,0],
[26,10,4,9,4,9,3,0,0, 0,0],
[46,1,3,2,3,1,2,1,1,0,0],
[22,11,4,11,5,10,5,10,6,0,0],
[18,16,3,16,2,0,0, 0,0, 0,0],
[22,1,7,1,6,2,6,0,0, 0,0],
[16,4,13,4,14,0,0, 0,0, 0,0],
[23,6,15,6,16,7,15,8,15,0,0],
[18,7,1,7,2,0,0, 0,0, 0,0],
[45,8,9,9,9,10,9,9,10,8,10],
[9,8,11,0,0, 0,0, 0,0, 0,0],
[14,8,13,0,0, 0,0, 0,0, 0,0],
[12,9,11,9,12,9,13,0,0, 0,0],
[31,10,1,10,2,11,1,0,0, 0,0],
[16,10,11,11,11,11,12,0,0, 0,0],
[26,12,10,12,11,0,0, 0,0, 0,0],
[21,15,12,16,12,0,0, 0,0, 0,0],
[6,16,6,0,0, 0,0, 0,0, 0,0],
[15,16,7,16,8,0,0, 0,0, 0,0]
]
